50 1225
1 2 689
1 3 528
1 4 747
1 5 715
1 6 809
1 7 390
1 8 326
1 9 873
1 10 293
1 11 735
1 12 708
1 13 604
1 14 478
1 15 144
1 16 684
1 17 452
1 18 807
1 19 245
1 20 218
1 21 69
1 22 637
1 23 849
1 24 636
1 25 601
1 26 945
1 27 682
1 28 767
1 29 767
1 30 419
1 31 1022
1 32 97
1 33 479
1 34 354
1 35 142
1 36 584
1 37 706
1 38 706
1 39 572
1 40 734
1 41 385
1 42 495
1 43 142
1 44 275
1 45 365
1 46 896
1 47 193
1 48 589
1 49 603
1 50 567
2 3 227
2 4 207
2 5 279
2 6 120
2 7 675
2 8 398
2 9 243
2 10 442
2 11 166
2 12 470
2 13 298
2 14 335
2 15 560
2 16 215
2 17 611
2 18 189
2 19 609
2 20 515
2 21 653
2 22 253
2 23 161
2 24 539
2 25 372
2 26 345
2 27 792
2 28 514
2 29 464
2 30 272
2 31 398
2 32 685
2 33 442
2 34 657
2 35 645
2 36 426
2 37 199
2 38 447
2 39 350
2 40 387
2 41 565
2 42 348
2 43 569
2 44 414
2 45 331
2 46 288
2 47 521
2 48 757
2 49 510
2 50 599
3 4 219
3 5 442
3 6 328
3 7 638
3 8 322
3 9 469
3 10 360
3 11 367
3 12 311
3 13 127
3 14 108
3 15 426
3 16 378
3 17 606
3 18 282
3 19 398
3 20 323
3 21 478
3 22 383
3 23 355
3 24 616
3 25 463
3 26 569
3 27 832
3 28 645
3 29 336
3 30 191
3 31 625
3 32 500
3 33 466
3 34 611
3 35 452
3 36 225
3 37 177
3 38 293
3 39 430
3 40 269
3 41 338
3 42 123
3 43 439
3 44 269
3 45 172
3 46 511
3 47 402
3 48 773
3 49 580
3 50 639
4 5 485
4 6 219
4 7 826
4 8 519
4 9 407
4 10 561
4 11 369
4 12 297
4 13 182
4 14 290
4 15 643
4 16 422
4 17 778
4 18 85
4 19 600
4 20 539
4 21 696
4 22 457
4 23 217
4 24 736
4 25 569
4 26 508
4 27 980
4 28 720
4 29 274
4 30 380
4 31 540
4 32 716
4 33 618
4 34 803
4 35 666
4 36 301
4 37 42
4 38 273
4 39 544
4 40 199
4 41 510
4 42 286
4 43 655
4 44 486
4 45 389
4 46 456
4 47 615
4 48 936
4 49 705
4 50 785
5 6 320
5 7 542
5 8 389
5 9 218
5 10 422
5 11 126
5 12 734
5 13 550
5 14 540
5 15 570
5 16 65
5 17 452
5 18 456
5 19 730
5 20 612
5 21 705
5 22 79
5 23 361
5 24 302
5 25 159
5 26 247
5 27 565
5 28 238
5 29 737
5 30 346
5 31 328
5 32 748
5 33 290
5 34 540
5 35 727
5 36 667
5 37 477
5 38 712
5 39 166
5 40 660
5 41 737
5 42 561
5 43 573
5 44 477
5 45 441
5 46 213
5 47 521
5 48 556
5 49 285
5 50 392
6 7 781
6 8 516
6 9 189
6 10 559
6 11 193
6 12 514
6 13 368
6 14 433
6 15 680
6 16 269
6 17 710
6 18 155
6 19 722
6 20 632
6 21 773
6 22 323
6 23 46
6 24 611
6 25 447
6 26 290
6 27 871
6 28 557
6 29 493
6 30 393
6 31 322
6 32 803
6 33 538
6 34 766
6 35 763
6 36 497
6 37 235
6 38 490
6 39 433
6 40 419
6 41 665
6 42 441
6 43 689
6 44 534
6 45 449
6 46 239
6 47 640
6 48 846
6 49 586
6 50 684
7 8 316
7 9 754
7 10 282
7 11 626
7 12 921
7 13 758
7 14 656
7 15 311
7 16 549
7 17 100
7 18 851
7 19 584
7 20 487
7 21 436
7 22 487
7 23 827
7 24 319
7 25 384
7 26 788
7 27 292
7 28 473
7 29 963
7 30 450
7 31 869
7 32 479
7 33 253
7 34 37
7 35 505
7 36 803
7 37 793
7 38 910
7 39 376
7 40 904
7 41 692
7 42 681
7 43 299
7 44 405
7 45 482
7 46 755
7 47 290
7 48 198
7 49 302
7 50 217
8 9 552
8 10 43
8 11 413
8 12 610
8 13 442
8 14 345
8 15 182
8 16 358
8 17 295
8 18 555
8 19 375
8 20 254
8 21 317
8 22 311
8 23 560
8 24 380
8 25 291
8 26 620
8 27 538
8 28 476
8 29 648
8 30 138
8 31 697
8 32 361
8 33 204
8 34 288
8 35 347
8 36 495
8 37 483
8 38 597
8 39 258
8 40 588
8 41 435
8 42 371
8 43 186
8 44 121
8 45 170
8 46 572
8 47 134
8 48 466
8 49 341
8 50 359
9 10 591
9 11 138
9 12 698
9 13 538
9 14 577
9 15 732
9 16 206
9 17 668
9 18 344
9 19 834
9 20 728
9 21 849
9 22 267
9 23 209
9 24 517
9 25 376
9 26 103
9 27 780
9 28 424
9 29 681
9 30 461
9 31 158
9 32 887
9 33 500
9 34 748
9 35 855
9 36 667
9 37 417
9 38 674
9 39 378
9 40 605
9 41 803
9 42 591
9 43 738
9 44 608
9 45 542
9 46 49
9 47 686
9 48 774
9 49 503
9 50 610
10 11 452
10 12 639
10 13 477
10 14 374
10 15 148
10 16 395
10 17 272
10 18 598
10 19 369
10 20 251
10 21 291
10 22 345
10 23 603
10 24 383
10 25 312
10 26 657
10 27 519
10 28 491
10 29 680
10 30 180
10 31 735
10 32 337
10 33 208
10 34 252
10 35 329
10 36 522
10 37 524
10 38 627
10 39 281
10 40 622
10 41 443
10 42 400
10 43 151
10 44 131
10 45 200
10 46 610
10 47 99
10 48 443
10 49 345
10 50 349
11 12 635
11 13 459
11 14 473
11 15 593
11 16 81
11 17 545
11 18 332
11 19 707
11 20 598
11 21 713
11 22 142
11 23 235
11 24 421
11 25 263
11 26 216
11 27 684
11 28 364
11 29 631
11 30 327
11 31 288
11 32 752
11 33 374
11 34 618
11 35 722
11 36 583
11 37 365
11 38 612
11 39 256
11 40 553
11 41 690
11 42 491
11 43 599
11 44 473
11 45 414
11 46 162
11 47 547
11 48 666
11 49 400
11 50 502
12 13 187
12 14 265
12 15 656
12 16 668
12 17 904
12 18 377
12 19 489
12 20 493
12 21 642
12 22 684
12 23 514
12 24 928
12 25 773
12 26 801
12 27 1138
12 28 951
12 29 67
12 30 494
12 31 837
12 32 642
12 33 775
12 34 890
12 35 585
12 36 125
12 37 280
12 38 24
12 39 741
12 40 102
12 41 353
12 42 240
12 43 670
12 44 520
12 45 440
12 46 746
12 47 650
12 48 1074
12 49 891
12 50 947
13 14 126
13 15 522
13 16 485
13 17 731
13 18 266
13 19 429
13 20 387
13 21 546
13 22 498
13 23 381
13 24 742
13 25 586
13 26 641
13 27 959
13 28 764
13 29 209
13 30 316
13 31 687
13 32 559
13 33 593
13 34 729
13 35 505
13 36 129
13 37 145
13 38 167
13 39 554
13 40 145
13 41 328
13 42 113
13 43 536
13 44 371
13 45 279
13 46 584
13 47 505
13 48 899
13 49 706
13 50 766
14 15 401
14 16 478
14 17 640
14 18 366
14 19 309
14 20 260
14 21 419
14 22 475
14 23 457
14 24 683
14 25 541
14 26 677
14 27 878
14 28 729
14 29 309
14 30 240
14 31 734
14 32 433
14 33 520
14 34 624
14 35 380
14 36 151
14 37 248
14 38 254
14 39 506
14 40 261
14 41 232
14 42 26
14 43 414
14 44 256
14 45 174
14 46 619
14 47 388
14 48 811
14 49 645
14 50 690
15 16 540
15 17 347
15 18 694
15 19 273
15 20 180
15 21 149
15 22 492
15 23 721
15 24 507
15 25 458
15 26 802
15 27 592
15 28 629
15 29 708
15 30 287
15 31 879
15 32 196
15 33 342
15 34 273
15 35 204
15 36 531
15 37 603
15 38 649
15 39 428
15 40 662
15 41 385
15 42 423
15 43 14
15 44 156
15 45 254
15 46 753
15 47 49
15 48 504
15 49 472
15 50 451
16 17 466
16 18 397
16 19 681
16 20 566
16 21 669
16 22 62
16 23 312
16 24 342
16 25 182
16 26 262
16 27 604
16 28 298
16 29 671
16 30 296
16 31 340
16 32 710
16 33 296
16 34 542
16 35 685
16 36 602
16 37 412
16 38 646
16 39 176
16 40 594
16 41 680
16 42 499
16 43 545
16 44 434
16 45 389
16 46 216
16 47 492
16 48 585
16 49 319
16 50 421
17 18 794
17 19 617
17 20 508
17 21 488
17 22 403
17 23 757
17 24 220
17 25 293
17 26 696
17 27 249
17 28 373
17 29 939
17 30 414
17 31 776
17 32 533
17 33 172
17 34 117
17 35 550
17 36 790
17 37 748
17 38 890
17 39 290
17 40 875
17 41 710
17 42 666
17 43 338
17 44 404
17 45 465
17 46 666
17 47 314
17 48 171
17 49 202
17 50 122
18 19 674
18 20 606
18 21 759
18 22 441
18 23 141
18 24 728
18 25 561
18 26 443
18 27 981
18 28 695
18 29 346
18 30 417
18 31 467
18 32 782
18 33 627
18 34 831
18 35 734
18 36 386
18 37 120
18 38 353
18 39 540
18 40 276
18 41 591
18 42 365
18 43 705
18 44 538
18 45 442
18 46 394
18 47 662
18 48 944
18 49 699
18 50 788
19 20 121
19 21 175
19 22 652
19 23 752
19 24 752
19 25 663
19 26 924
19 27 864
19 28 852
19 29 553
19 30 385
19 31 991
19 32 159
19 33 577
19 34 546
19 35 103
19 36 371
19 37 558
19 38 492
19 39 628
19 40 534
19 41 144
19 42 316
19 43 284
19 44 260
19 45 293
19 46 868
19 47 302
19 48 777
19 49 714
19 50 713
20 21 158
20 22 534
20 23 666
20 24 632
20 25 541
20 26 814
20 27 758
20 28 730
20 29 550
20 30 271
20 31 885
20 32 176
20 33 457
20 34 450
20 35 131
20 36 368
20 37 497
20 38 489
20 39 506
20 40 515
20 41 205
20 42 276
20 43 194
20 44 138
20 45 186
20 46 760
20 47 197
20 48 674
20 49 594
20 50 598
21 22 626
21 23 810
21 24 657
21 25 604
21 26 927
21 27 726
21 28 779
21 29 702
21 30 389
21 31 1002
21 32 47
21 33 491
21 34 399
21 35 75
21 36 518
21 37 654
21 38 641
21 39 572
21 40 671
21 41 316
21 42 434
21 43 154
21 44 242
21 45 323
21 46 876
21 47 196
21 48 634
21 49 622
21 50 597
22 23 368
22 24 288
22 25 123
22 26 316
22 27 547
22 28 267
22 29 693
22 30 269
22 31 396
22 32 668
22 33 233
22 34 480
22 35 648
22 36 609
22 37 442
22 38 663
22 39 114
22 40 617
22 41 664
22 42 498
22 43 496
22 44 398
22 45 366
22 46 274
22 47 443
22 48 525
22 49 263
22 50 362
23 24 655
23 25 492
23 26 304
23 27 916
23 28 596
23 29 487
23 30 434
23 31 325
23 32 839
23 33 584
23 34 812
23 35 797
23 36 509
23 37 240
23 38 490
23 39 479
23 40 415
23 41 689
23 42 463
23 43 731
23 44 574
23 45 486
23 46 258
23 47 682
23 48 892
23 49 631
23 50 729
24 25 167
24 26 520
24 27 263
24 28 154
24 29 949
24 30 443
24 31 596
24 32 704
24 33 176
24 34 336
24 35 707
24 36 832
24 37 716
24 38 910
24 39 192
24 40 876
24 41 814
24 42 709
24 43 503
24 44 502
24 45 525
24 46 502
24 47 463
24 48 263
24 49 38
24 50 110
25 26 404
25 27 424
25 28 192
25 29 790
25 30 308
25 31 484
25 32 649
25 33 138
25 34 384
25 35 639
25 36 685
25 37 550
25 38 754
25 39 35
25 40 716
25 41 700
25 42 566
25 43 458
25 44 403
25 45 400
25 46 373
25 47 409
25 48 403
25 49 139
25 50 239
26 27 775
26 28 402
26 29 783
26 30 544
26 31 80
26 32 966
26 33 538
26 34 787
26 35 938
26 36 770
26 37 520
26 38 777
26 39 414
26 40 708
26 41 900
26 42 692
26 43 807
26 44 688
26 45 630
26 46 57
26 47 754
26 48 783
26 49 513
26 50 622
27 28 379
27 29 1168
27 30 643
27 31 849
27 32 771
27 33 366
27 34 328
27 35 793
27 36 1030
27 37 955
27 38 1122
27 39 441
27 40 1100
27 41 959
27 42 905
27 43 582
27 44 651
27 45 706
27 46 762
27 47 562
27 48 95
27 49 284
27 50 195
28 29 961
28 30 500
28 31 472
28 32 825
28 33 287
28 34 488
28 35 821
28 36 870
28 37 708
28 38 930
28 39 228
28 40 885
28 41 893
28 42 754
28 43 627
28 44 592
28 45 593
28 46 397
28 47 582
28 48 403
28 49 173
28 50 263
29 30 525
29 31 813
29 32 704
29 33 802
29 34 932
29 35 647
29 36 183
29 37 266
29 38 61
29 39 759
29 40 77
29 41 419
29 42 285
29 43 721
29 44 566
29 45 480
29 46 730
29 47 698
29 48 1108
29 49 913
29 50 975
30 31 616
30 32 425
30 33 281
30 34 424
30 35 394
30 36 390
30 37 345
30 38 479
30 39 272
30 40 460
30 41 397
30 42 266
30 43 297
30 44 147
30 45 96
30 46 490
30 47 249
30 48 582
30 49 404
30 50 452
31 32 1040
31 33 619
31 34 868
31 35 1010
31 36 817
31 37 557
31 38 813
31 39 495
31 40 740
31 41 961
31 42 746
31 43 884
31 44 762
31 45 699
31 46 126
31 47 832
31 48 859
31 49 591
31 50 700
32 33 538
32 34 442
32 35 57
32 36 520
32 37 673
32 38 642
32 39 618
32 40 678
32 41 303
32 42 446
32 43 201
32 44 278
32 45 354
32 46 914
32 47 243
32 48 678
32 49 669
32 50 644
33 34 249
33 35 536
33 36 671
33 37 591
33 38 758
33 39 124
33 40 734
33 41 639
33 42 547
33 43 340
33 44 326
33 45 355
33 46 503
33 47 295
33 48 317
33 49 137
33 50 172
34 35 467
34 36 770
34 37 769
34 38 878
34 39 373
34 40 875
34 41 656
34 42 650
34 43 262
34 44 371
34 45 451
34 46 752
34 47 254
34 48 235
34 49 315
34 50 239
35 36 463
35 37 623
35 38 585
35 39 606
35 40 622
35 41 247
35 42 392
35 43 212
35 44 250
35 45 315
35 46 885
35 47 244
35 48 702
35 49 671
35 50 655
36 37 269
36 38 122
36 39 651
36 40 167
36 41 243
36 42 125
36 43 545
36 44 399
36 45 325
36 46 713
36 47 527
36 48 962
36 49 794
36 50 842
37 38 256
37 39 523
37 40 189
37 41 470
37 42 245
37 43 615
37 44 446
37 45 348
37 46 466
37 47 576
37 48 908
37 49 683
37 50 760
38 39 722
38 40 79
38 41 358
38 42 229
38 43 663
38 44 510
38 45 427
38 46 722
38 47 641
38 48 1060
38 49 873
38 50 931
39 40 686
39 41 664
39 42 531
39 43 429
39 44 368
39 45 364
39 46 379
39 47 379
39 48 413
39 49 160
39 50 251
40 41 410
40 42 240
40 43 676
40 44 514
40 45 424
40 46 654
40 47 648
40 48 1043
40 49 841
40 50 906
41 42 227
41 43 398
41 44 314
41 45 301
41 46 843
41 47 402
41 48 877
41 49 775
41 50 792
42 43 436
42 44 280
42 45 201
42 46 634
42 47 412
42 48 837
42 49 671
42 50 717
43 44 169
43 45 266
43 46 758
43 47 52
43 48 493
43 49 468
43 50 444
44 45 97
44 46 636
44 47 134
44 48 575
44 49 463
44 50 478
45 46 575
45 47 229
45 48 637
45 49 487
45 50 522
46 47 706
46 48 763
46 49 492
46 50 600
47 48 477
47 49 427
47 50 412
48 49 271
48 50 164
49 50 108
